     Program PWSCF v.7.0 starts on 30Aug2023 at  4:37:40

     K-points division:     npool     =       4
     R & G space division:  proc/nbgrp/npool/nimage =      16

     Reading input from pw.in

     Current dimensions of program PWSCF are:
     Max number of different atomic species (ntypx) = 10
     Max number of k-points (npk) =  40000
     Max angular momentum in pseudopotentials (lmaxx) =  4
     Message from routine iosys:
     restart disabled: needed files not found
     file C.pbesol-n-kjpaw_psl.1.0.0.UPF: wavefunction(s)  2S 2P renormalized
     file O.pbesol-n-kjpaw_psl.0.1.UPF: wavefunction(s)  2P renormalized

     Parameters for Dispersion (Grimme-D2) Correction:
       atom      VdW radius       C_6

        C          2.744         60.710
        H          1.892          4.857
        Zn         2.952        374.666
        N          2.640         42.670
        O          2.536         24.284
     Message from routine divide_et_impera:
     suboptimal parallelization: some nodes have no k-points

     Subspace diagonalization in iterative solution of the eigenvalue problem:
     a serial algorithm will be used

     Using Slab Decomposition

     bravais-lattice index     =            4
     lattice parameter (alat)  =      40.5668  a.u.
     unit-cell volume          =   18994.0302 (a.u.)^3
     number of atoms/cell      =          192
     number of atomic types    =            5
     number of electrons       =       642.00
     number of Kohn-Sham states=          385
     kinetic-energy cutoff     =      85.0000  Ry
     charge density cutoff     =     480.0000  Ry
     scf convergence threshold =      1.7E-08
     mixing beta               =       0.4000
     number of iterations used =            8  plain     mixing
     Exchange-correlation= SLA  PW   PSX  PSC
                           (   1   4  10   8   0   0   0)

     GPU acceleration is ACTIVE.

     Message from routine print_cuda_info:
     High GPU oversubscription detected. Are you sure this is what you want?

     GPU used by master process:

        Device Number: 0
        Compute capability : 80
        Ratio of single to double precision performance  : 2

     celldm(1)=  40.566772  celldm(2)=   1.000000  celldm(3)=   0.328530
     celldm(4)=   0.000000  celldm(5)=   0.000000  celldm(6)=   0.000000

     crystal axes: (cart. coord. in units of alat)
               a(1) = (   1.000000   0.000000   0.000000 )
               a(2) = (  -0.500000   0.866025   0.000000 )
               a(3) = (   0.000000   0.000000   0.328530 )

     reciprocal axes: (cart. coord. in units 2 pi/alat)
               b(1) = (  1.000000  0.577350 -0.000000 )
               b(2) = (  0.000000  1.154701  0.000000 )
               b(3) = (  0.000000 -0.000000  3.043861 )

     PseudoPot. # 1 for C  read from file:
     ./pseudo/C.pbesol-n-kjpaw_psl.1.0.0.UPF
     MD5 check sum: 5f3a56537b2bcef3348431d8311bb923
     Pseudo is Projector augmented-wave + core cor, Zval =  4.0
     Generated using "atomic" code by A. Dal Corso  v.6.0 svn rev. 13079
     Shape of augmentation charge: PSQ
     Using radial grid of 1073 points,  4 beta functions with:
                l(1) =   0
                l(2) =   0
                l(3) =   1
                l(4) =   1
     Q(r) pseudized with 0 coefficients

     PseudoPot. # 2 for H  read from file:
     ./pseudo/H.pbesol-rrkjus_psl.1.0.0.UPF
     MD5 check sum: 0324ed591cc0147dc3d88cad0d33f665
     Pseudo is Ultrasoft, Zval =  1.0
     Generated using "atomic" code by A. Dal Corso  v.6.0 svn rev. 13079
     Using radial grid of  929 points,  2 beta functions with:
                l(1) =   0
                l(2) =   0
     Q(r) pseudized with 0 coefficients

     PseudoPot. # 3 for Zn read from file:
     ./pseudo/zn_pbesol_v1.uspp.F.UPF
     MD5 check sum: 7d8615e52efe7c1e2b1899de8658bae2
     Pseudo is Ultrasoft, Zval = 20.0
     Generated by new atomic code, or converted to UPF format
     Using radial grid of  943 points,  6 beta functions with:
                l(1) =   0
                l(2) =   0
                l(3) =   1
                l(4) =   1
                l(5) =   2
                l(6) =   2
     Q(r) pseudized with  8 coefficients,  rinner =    1.100   1.100   1.100
                                                       1.100   1.100

     PseudoPot. # 4 for N  read from file:
     ./pseudo/N.pbesol-theos.UPF
     MD5 check sum: 1b64827339d390a5a22afef3ff345c9d
     Pseudo is Ultrasoft + core correction, Zval =  5.0
     Generated using "atomic" code by A. Dal Corso  v.5.1
     Using radial grid of 1085 points,  4 beta functions with:
                l(1) =   0
                l(2) =   0
                l(3) =   1
                l(4) =   1
     Q(r) pseudized with 0 coefficients

     PseudoPot. # 5 for O  read from file:
     ./pseudo/O.pbesol-n-kjpaw_psl.0.1.UPF
     MD5 check sum: 81d73d1479e654e5638b0319f0d6c2c7
     Pseudo is Projector augmented-wave + core cor, Zval =  6.0
     Generated using "atomic" code by A. Dal Corso  v.6.0 svn rev. 13079
     Shape of augmentation charge: BESSEL
     Using radial grid of 1095 points,  4 beta functions with:
                l(1) =   0
                l(2) =   0
                l(3) =   1
                l(4) =   1
     Q(r) pseudized with 0 coefficients

     atomic species   valence    mass     pseudopotential
        C              4.00    12.01070     C ( 1.00)
        H              1.00     1.00794     H ( 1.00)
        Zn            20.00    65.38000     Zn( 1.00)
        N              5.00    14.00670     N ( 1.00)
        O              6.00    15.99940     O ( 1.00)

     No symmetry found

                                    s                        frac. trans.

      isym =  1     identity

 cryst.   s( 1) = (     1          0          0      )
                  (     0          1          0      )
                  (     0          0          1      )

 cart.    s( 1) = (  1.0000000  0.0000000  0.0000000 )
                  (  0.0000000  1.0000000  0.0000000 )
                  (  0.0000000  0.0000000  1.0000000 )

     point group C_1 (1)
     there are  1 classes
     the character table:

       E
A      1.00

     the symmetry operations in each class and the name of the first element:

     E        1
          identity

   Cartesian axes

     site n.     atom                  positions (alat units)
         1           C   tau(   1) = (   0.1179613   0.4851500   0.1647353  )
         2           H   tau(   2) = (   0.0837591   0.8638067   0.1651322  )
         3           C   tau(   3) = (   0.5460969   0.0275891   0.0763722  )
         4           C   tau(   4) = (   0.5661482   0.0373350   0.1380313  )
         5           H   tau(   5) = (   0.5100115   0.0745011   0.3235479  )
         6           C   tau(   6) = (   0.5261380   0.0795245   0.0431516  )
         7           C   tau(   7) = (   0.5643822   0.0959871   0.1645275  )
         8           H   tau(   8) = (   0.4611610   0.0871061   0.1973334  )
         9           H   tau(   9) = (   0.5797148   0.1039255   0.2125299  )
        10           H   tau(  10) = (   0.3812203   0.0701417   0.1808971  )
        11           H   tau(  11) = (   0.6168093   0.1912154   0.0117040  )
        12           H   tau(  12) = (   0.6995505   0.1990012   0.0186360  )
        13           C   tau(  13) = (   0.4130397   0.1023229   0.2055778  )
        14           C   tau(  14) = (   0.5230270   0.1395919   0.0686780  )
        15           H   tau(  15) = (   0.6528114   0.2639000  -0.0062582  )
        16           C   tau(  16) = (   0.5413462   0.1486676   0.1321281  )
        17           C   tau(  17) = (   0.6544404   0.2232643   0.0250091  )
        18           H   tau(  18) = (   0.4041259   0.0999847   0.2559371  )
        19           H   tau(  19) = (   0.3383207   0.1254340   0.0020228  )
        20           H   tau(  20) = (   0.3108102   0.1159873   0.1105788  )
        21           O   tau(  21) = (   0.4871744   0.1750523   0.2992609  )
        22           H   tau(  22) = (   0.7663968   0.1157586   0.1847716  )
        23           H   tau(  23) = (   0.7654285   0.2002711   0.1075771  )
        24           C   tau(  24) = (   0.5001989   0.1899000   0.0264152  )
        25           H   tau(  25) = (   0.4192867   0.1695970   0.1381144  )
        26           N   tau(  26) = (   0.4049909   0.1668768   0.1843163  )
        27           O   tau(  27) = (   0.5384579   0.2024080   0.1624581  )
        28           H   tau(  28) = (   0.3129065   0.1582931   0.2184535  )
        29           H   tau(  29) = (   0.6429039   0.2058160   0.1181646  )
        30           N   tau(  30) = (   0.6457663   0.2444562   0.0893085  )
        31           C   tau(  31) = (   0.3337332   0.1763837   0.0075433  )
        32           C   tau(  32) = (   0.3113367   0.1670932   0.1177726  )
        33           H   tau(  33) = (   0.3656599   0.1994095   0.3032780  )
        34           H   tau(  34) = (   0.7221434   0.3048003   0.0739331  )
        35           N   tau(  35) = (   0.3508835   0.1935089   0.0701551  )
        36           C   tau(  36) = (   0.3380930   0.1829982   0.1812643  )
        37           C   tau(  37) = (   0.7472528   0.2338159   0.1423348  )
        38           C   tau(  38) = (   0.7527445   0.1509465   0.2196703  )
        39           Zn  tau(  39) = (   0.4699434   0.2312502   0.2255562  )
        40           O   tau(  40) = (   0.4957628   0.2452787   0.0474201  )
        41           H   tau(  41) = (   0.7252519   0.1269873   0.2557557  )
        42           C   tau(  42) = (   0.7010113   0.2783489   0.1124927  )
        43           N   tau(  43) = (   0.7152483   0.1984126   0.1900842  )
        44           H   tau(  44) = (   0.2850649   0.1891977   0.3233589  )
        45           H   tau(  45) = (   0.2619221   0.1828339   0.1154795  )
        46           H   tau(  46) = (   0.7962016   0.1689372   0.2415355  )
        47           H   tau(  47) = (   0.7881826   0.2605866   0.1598444  )
        48           H   tau(  48) = (   0.3544716   0.2410005   0.0742287  )
        49           H   tau(  49) = (   0.3320923   0.2331437   0.1898444  )
        50           Zn  tau(  50) = (   0.5563711   0.2838812   0.1151111  )
        51           O   tau(  51) = (   0.5358129   0.2994408   0.2658371  )
        52           H   tau(  52) = (   0.6962744   0.2279047   0.2224464  )
        53           H   tau(  53) = (   0.6853154   0.3124264   0.1475980  )
        54           O   tau(  54) = (   0.4104704   0.2919553   0.2708532  )
        55           H   tau(  55) = (   0.0391462   0.3165170   0.2261669  )
        56           H   tau(  56) = (  -0.0433230   0.3242992   0.2311648  )
        57           H   tau(  57) = (  -0.0080300   0.3468439   0.1230300  )
        58           O   tau(  58) = (   0.4675718   0.3048351   0.1570642  )
        59           O   tau(  59) = (   0.5950329   0.3333397   0.1866076  )
        60           C   tau(  60) = (   0.5799315   0.3323201   0.2439709  )
[...]
       178           C   tau( 178) = (  -0.0913077   0.7524648   0.2445857  )
[...]
     atom   46 type  2   force =     0.00000000    0.00000000    0.00000000
     atom   47 type  2   force =     0.00000000    0.00000000    0.00000000
     atom   48 type  2   force =     0.00000000    0.00000000    0.00000000
     atom   49 type  2   force =     0.00000000    0.00000000    0.00000000
     atom   50 type  3   force =     0.00000000    0.00000000    0.00000000
     atom   51 type  5   force =     0.00000000    0.00000000    0.00000000
     atom   52 type  2   force =     0.00000000    0.00000000    0.00000000
     atom   53 type  2   force =     0.00000000    0.00000000    0.00000000
     atom   54 type  5   force =     0.00000000    0.00000000    0.00000000
     atom   55 type  2   force =     0.00000000    0.00000000    0.00000000
     atom   56 type  2   force =     0.00000000    0.00000000    0.00000000
     atom   57 type  2   force =     0.00000000    0.00000000    0.00000000
     atom   58 type  5   force =     0.00000000    0.00000000    0.00000000
     atom   59 type  5   force =     0.00000000    0.00000000    0.00000000
     atom   60 type  1   force =     0.00000000    0.00000000    0.00000000
[...]
     atom  178 type  1   force =     0.00000000    0.00000000    0.00000000
     atom  179 type  1   force =     0.00000000    0.00000000    0.00000000
     atom  180 type  1   force =     0.00000000    0.00000000    0.00000000
     atom  181 type  2   force =     0.00000000    0.00000000    0.00000000
     atom  182 type  2   force =     0.00000000    0.00000000    0.00000000
     atom  183 type  2   force =     0.00000000    0.00000000    0.00000000
     atom  184 type  2   force =     0.00000000    0.00000000    0.00000000
     atom  185 type  2   force =     0.00000000    0.00000000    0.00000000
     atom  186 type  2   force =     0.00000000    0.00000000    0.00000000
     atom  187 type  1   force =     0.00000000    0.00000000    0.00000000
     atom  188 type  1   force =     0.00000000    0.00000000    0.00000000
     atom  189 type  2   force =     0.00000000    0.00000000    0.00000000
     atom  190 type  1   force =     0.00000000    0.00000000    0.00000000
     atom  191 type  1   force =     0.00000000    0.00000000    0.00000000
     atom  192 type  2   force =     0.00000000    0.00000000    0.00000000
     The SCF correction term to forces
     atom    1 type  1   force =    -0.00000369    0.00000830    0.00000720
     atom    2 type  2   force =     0.00000119   -0.00000196    0.00000202
     atom    3 type  1   force =    -0.00000244   -0.00001059   -0.00001019
     atom    4 type  1   force =     0.00000128   -0.00000328    0.00001024
     atom    5 type  2   force =    -0.00000064    0.00000047   -0.00000160
     atom    6 type  1   force =    -0.00000474    0.00000355   -0.00001388
     atom    7 type  1   force =    -0.00000363    0.00002164    0.00000980
     atom    8 type  2   force =     0.00000137    0.00000016    0.00000066
     atom    9 type  2   force =    -0.00000061    0.00000224    0.00000049
     atom   10 type  2   force =    -0.00000172   -0.00000201    0.00000048
     atom   11 type  2   force =    -0.00000250    0.00000025   -0.00000024
     atom   12 type  2   force =     0.00000149   -0.00000043   -0.00000063
     atom   13 type  1   force =     0.00000112   -0.00000834    0.00000963
     atom   14 type  1   force =    -0.00000618    0.00002568    0.00000081
     atom   15 type  2   force =    -0.00000113    0.00000152   -0.00000131
     atom   16 type  1   force =    -0.00000233    0.00002555    0.00001418
     atom   17 type  1   force =    -0.00000632    0.00000252   -0.00000173
     atom   18 type  2   force =    -0.00000042   -0.00000105    0.00000123
     atom   19 type  2   force =    -0.00000067   -0.00000235   -0.00000012
     atom   20 type  2   force =    -0.00000215    0.00000082    0.00000055
     atom   21 type  5   force =     0.00000989    0.00001919    0.00002179
     atom   22 type  2   force =     0.00000217   -0.00000149   -0.00000187
     atom   23 type  2   force =     0.00000203    0.00000151    0.00000091
     atom   24 type  1   force =    -0.00000299    0.00001129    0.00000118
     atom   25 type  2   force =     0.00000239    0.00000296   -0.00000412
     atom   26 type  4   force =    -0.00000198    0.00001770    0.00000086
     atom   27 type  5   force =    -0.00000181   -0.00001205   -0.00000544
     atom   28 type  2   force =    -0.00000201    0.00000078   -0.00000157
     atom   29 type  2   force =    -0.00000220    0.00000148    0.00000143
     atom   30 type  4   force =    -0.00000986    0.00000998    0.00001193
     atom   31 type  1   force =    -0.00000278   -0.00000009   -0.00000051
     atom   32 type  1   force =    -0.00000812    0.00000202    0.00000854
     atom   33 type  2   force =     0.00000137    0.00000179   -0.00000111
     atom   34 type  2   force =     0.00000178    0.00000140    0.00000079
     atom   35 type  4   force =    -0.00000037   -0.00000268    0.00000664
     atom   36 type  1   force =    -0.00001601    0.00000228   -0.00000134
     atom   37 type  1   force =     0.00000848    0.00001017    0.00000107
     atom   38 type  1   force =     0.00000778    0.00000174    0.00000086
     atom   39 type  3   force =     0.00002619    0.00002664   -0.00002003
     atom   40 type  5   force =    -0.00000494   -0.00000876   -0.00000738
     atom   41 type  2   force =    -0.00000046   -0.00000114    0.00000200
     atom   42 type  1   force =     0.00000499    0.00000565    0.00000700
     atom   43 type  4   force =    -0.00000049    0.00001016   -0.00000917
     atom   44 type  2   force =    -0.00000307    0.00000010   -0.00000097
     atom   45 type  2   force =    -0.00000018   -0.00000060    0.00000135
     atom   46 type  2   force =     0.00000343    0.00000120    0.00000091
     atom   47 type  2   force =    -0.00000010    0.00000066   -0.00000082
     atom   48 type  2   force =     0.00000100    0.00000111    0.00000095
     atom   49 type  2   force =    -0.00000030   -0.00000163    0.00000001
     atom   50 type  3   force =    -0.00001265    0.00000566    0.00001709
     atom   51 type  5   force =     0.00000716   -0.00000113   -0.00001876
     atom   52 type  2   force =    -0.00000069    0.00000209   -0.00000047
     atom   53 type  2   force =     0.00000037    0.00000085    0.00000071
     atom   54 type  5   force =    -0.00000627    0.00000395   -0.00000594
     atom   55 type  2   force =    -0.00000111   -0.00000143   -0.00000107
     atom   56 type  2   force =     0.00000147   -0.00000236   -0.00000048
     atom   57 type  2   force =     0.00000068   -0.00000301    0.00000131
     atom   58 type  5   force =     0.00000023    0.00000212   -0.00001059
     atom   59 type  5   force =    -0.00001462   -0.00000585    0.00002096
     atom   60 type  1   force =    -0.00000478   -0.00000720   -0.00001073
[...]
     atom  178 type  1   force =    -0.00000480    0.00001736   -0.00001014
     atom  179 type  1   force =     0.00000294   -0.00001236   -0.00001295
     atom  180 type  1   force =    -0.00000467   -0.00001298    0.00000388
     atom  181 type  2   force =     0.00000255    0.00000266    0.00000098
     atom  182 type  2   force =    -0.00000291    0.00000360   -0.00000044
     atom  183 type  2   force =     0.00000205    0.00000039   -0.00000104
     atom  184 type  2   force =     0.00000100    0.00000283   -0.00000063
     atom  185 type  2   force =    -0.00000166    0.00000279   -0.00000172
     atom  186 type  2   force =     0.00000108    0.00000057   -0.00000020
     atom  187 type  1   force =     0.00000423   -0.00000367   -0.00000891
     atom  188 type  1   force =    -0.00000168    0.00000873    0.00001098
     atom  189 type  2   force =    -0.00000048    0.00000151    0.00000122
     atom  190 type  1   force =     0.00000268    0.00001175   -0.00000771
     atom  191 type  1   force =     0.00000009    0.00001350    0.00000316
     atom  192 type  2   force =     0.00000066    0.00000216   -0.00000089

     Dispersion contribution to forces:
     atom    1 type  1   force =    -0.00190098    0.00216969   -0.00012959
     atom    2 type  2   force =    -0.00071832   -0.00125166    0.00031612
     atom    3 type  1   force =    -0.00034707   -0.00096152   -0.00049161
     atom    4 type  1   force =    -0.00063504   -0.00134264    0.00106332
     atom    5 type  2   force =     0.00034329   -0.00154366   -0.00106141
     atom    6 type  1   force =    -0.00023650   -0.00012592   -0.00110427
     atom    7 type  1   force =     0.00015368    0.00207497    0.00151169
     atom    8 type  2   force =     0.00167299    0.00099790   -0.00049361
     atom    9 type  2   force =    -0.00063423    0.00033364    0.00075700
     atom   10 type  2   force =    -0.00145726    0.00055751   -0.00152992
     atom   11 type  2   force =    -0.00219582   -0.00050750    0.00068749
     atom   12 type  2   force =     0.00174479   -0.00034389    0.00062192
     atom   13 type  1   force =     0.00145751    0.00008291   -0.00023917
     atom   14 type  1   force =    -0.00052883    0.00294900    0.00062472
     atom   15 type  2   force =    -0.00079956    0.00253308   -0.00046279
     atom   16 type  1   force =    -0.00096387    0.00029237    0.00058131
     atom   17 type  1   force =    -0.00199278    0.00056543   -0.00092768
     atom   18 type  2   force =    -0.00059585    0.00233802    0.00215350
     atom   19 type  2   force =     0.00084377   -0.00112840   -0.00018699
     atom   20 type  2   force =     0.00169478   -0.00068571    0.00034024
     atom   21 type  5   force =    -0.00146719    0.00216826   -0.00190574
     atom   22 type  2   force =     0.00001493    0.00002979   -0.00165852
     atom   23 type  2   force =    -0.00132295   -0.00074685   -0.00092396
     atom   24 type  1   force =    -0.00154030    0.00075637    0.00062123
     atom   25 type  2   force =     0.00202494   -0.00039603   -0.00101271
     atom   26 type  4   force =     0.00259767    0.00273707    0.00010163
     atom   27 type  5   force =    -0.00039855    0.00021963    0.00075815
     atom   28 type  2   force =     0.00017810   -0.00031216    0.00157361
     atom   29 type  2   force =    -0.00019904   -0.00110778   -0.00084544
     atom   30 type  4   force =    -0.00336066    0.00049612    0.00082408
     atom   31 type  1   force =     0.00243298    0.00132042   -0.00187407
     atom   32 type  1   force =     0.00001560   -0.00027677   -0.00110795
     atom   33 type  2   force =     0.00221827    0.00087592   -0.00252753
     atom   34 type  2   force =    -0.00035109    0.00090907   -0.00120654
     atom   35 type  4   force =     0.00278832    0.00272975   -0.00015270
     atom   36 type  1   force =     0.00170390    0.00264523    0.00271266
     atom   37 type  1   force =     0.00079131   -0.00078089    0.00012457
     atom   38 type  1   force =    -0.00076736    0.00073006   -0.00019686
     atom   39 type  3   force =    -0.00047632   -0.00036217    0.00075599
     atom   40 type  5   force =    -0.00090302   -0.00020682   -0.00036279
     atom   41 type  2   force =    -0.00158241    0.00041278    0.00117721
     atom   42 type  1   force =    -0.00201557    0.00236655   -0.00080957
     atom   43 type  4   force =    -0.00235722    0.00104448    0.00100895
     atom   44 type  2   force =    -0.00071760    0.00103299   -0.00023190
     atom   45 type  2   force =     0.00004140    0.00100364   -0.00015859
     atom   46 type  2   force =     0.00071557    0.00149050    0.00008168
     atom   47 type  2   force =    -0.00000678    0.00063734    0.00077156
     atom   48 type  2   force =     0.00110625    0.00089303    0.00047872
     atom   49 type  2   force =     0.00089622    0.00061280   -0.00035104
     atom   50 type  3   force =     0.00075284    0.00289012    0.00027584
     atom   51 type  5   force =     0.00027324   -0.00058729   -0.00042247
     atom   52 type  2   force =    -0.00079517    0.00046503    0.00012314
     atom   53 type  2   force =    -0.00110312    0.00048633    0.00112951
     atom   54 type  5   force =    -0.00002963   -0.00008789    0.00065569
     atom   55 type  2   force =     0.00086196    0.00056667    0.00014665
     atom   56 type  2   force =    -0.00145932    0.00108860   -0.00034335
     atom   57 type  2   force =    -0.00030304   -0.00004362   -0.00160031
     atom   58 type  5   force =     0.00039324    0.00079590   -0.00056237
     atom   59 type  5   force =    -0.00189840   -0.00144688   -0.00187618
     atom   60 type  1   force =    -0.00041594   -0.00018265    0.00024712
[...]
     atom  178 type  1   force =     0.00154659   -0.00027509    0.00007500
     atom  179 type  1   force =    -0.00073932   -0.00046439   -0.00150109
     atom  180 type  1   force =    -0.00084664   -0.00276843   -0.00009241
     atom  181 type  2   force =    -0.00056619    0.00114614    0.00026853
     atom  182 type  2   force =    -0.00145029   -0.00057863    0.00150737
     atom  183 type  2   force =    -0.00092435    0.00047923    0.00014043
     atom  184 type  2   force =     0.00188557   -0.00095309    0.00049251
     atom  185 type  2   force =    -0.00039854   -0.00240470   -0.00202075
     atom  186 type  2   force =    -0.00014667   -0.00115221   -0.00130902
     atom  187 type  1   force =     0.00083584   -0.00278970   -0.00177208
     atom  188 type  1   force =     0.00050116   -0.00010147    0.00130511
     atom  189 type  2   force =     0.00053779    0.00127279    0.00111502
     atom  190 type  1   force =    -0.00037891    0.00085236   -0.00105707
     atom  191 type  1   force =    -0.00008284    0.00070361    0.00059053
     atom  192 type  2   force =    -0.00064373    0.00124010   -0.00032242

     Total force =     0.024261     Total SCF correction =     0.000183

     Total Dispersion Force =     0.030707

     Computing stress (Cartesian axis) and pressure

     negative rho (up, down):  9.439E-04 0.000E+00
          total   stress  (Ry/bohr**3)                   (kbar)     P=       -3.75
  -0.00002230  -0.00000206   0.00000244           -3.28       -0.30        0.36
  -0.00000206  -0.00002708   0.00000170           -0.30       -3.98        0.25
   0.00000244   0.00000170  -0.00002714            0.36        0.25       -3.99

     kinetic stress (kbar)   6577.04      4.09      6.46
                                4.09   6560.01      3.13
                                6.46      3.13   6447.13

     local   stress (kbar)  -5935.39   -656.66   -326.19
                             -656.66  -3792.45    371.09
                             -326.19    371.09-125582.59

     nonloc. stress (kbar)   1018.08      0.09      1.12
                                0.09   1017.19     -0.61
                                1.12     -0.61   1027.34

     hartree stress (kbar)   5705.44    327.79    134.66
                              327.79   4661.35   -149.40
                              134.66   -149.40  64257.09

     exc-cor stress (kbar)  -1209.84     -0.04      0.12
                               -0.04  -1209.85     -0.16
                                0.12     -0.16  -1206.14

     corecor stress (kbar)   -661.81      0.01     -0.15
                                0.01   -661.71      0.05
                               -0.15      0.05   -664.22

     ewald   stress (kbar)  -5490.18    324.41    184.32
                              324.41  -6571.82   -223.84
                              184.32   -223.84  55724.85

     hubbard stress (kbar)      0.00      0.00      0.00
                                0.00      0.00      0.00
                                0.00      0.00      0.00

     DFT-D   stress (kbar)     -6.63      0.02      0.03
                                0.02     -6.71     -0.01
                                0.03     -0.01     -7.45

     XDM     stress (kbar)      0.00      0.00      0.00
                                0.00      0.00      0.00
                                0.00      0.00      0.00

     dft-nl  stress (kbar)      0.00      0.00      0.00
                                0.00      0.00      0.00
                                0.00      0.00      0.00

     TS-vdW  stress (kbar)      0.00      0.00      0.00
                                0.00      0.00      0.00
                                0.00      0.00      0.00

[...]

                                0.00      0.00      0.00

     Writing all to output data dir ./out/m2m.save/

     General routines
                                        0.48s GPU  (     141 calls)
                                       18.10s GPU  (    2920 calls)

     Parallel routines

     PAW routines

   This run was terminated on:   4:38:35  30Aug2023

   JOB DONE.